solution status: optimal solution found
objective value:                     133426.437803171
d11(0,0)                                            1 	(obj:0)
d11(1,1)                                            1 	(obj:0)
d11(1,2)                                            1 	(obj:0)
d11(1,3)                                            1 	(obj:0)
d11(2,4)                                            1 	(obj:0)
d11(2,5)                                            1 	(obj:0)
d11(2,6)                                            1 	(obj:0)
d11(2,7)                                            1 	(obj:0)
d11(2,8)                                            1 	(obj:0)
d11(2,10)                                           1 	(obj:0)
d11(2,11)                                           1 	(obj:0)
d11(3,13)                                           1 	(obj:0)
d11(3,14)                                           1 	(obj:0)
d11(3,16)                                           1 	(obj:0)
d11(3,17)                                           1 	(obj:0)
d11(3,19)                                           1 	(obj:0)
d11(3,20)                                           1 	(obj:0)
d11(3,22)                                           1 	(obj:0)
d11(3,23)                                           1 	(obj:0)
d11(3,25)                                           1 	(obj:0)
d11(3,26)                                           1 	(obj:0)
d11(3,28)                                           1 	(obj:0)
d11(3,29)                                           1 	(obj:0)
d11(3,31)                                           1 	(obj:0)
d11(3,32)                                           1 	(obj:0)
d11(3,34)                                           1 	(obj:0)
d11(3,35)                                           1 	(obj:0)
d11(3,37)                                           1 	(obj:0)
d11(3,38)                                           1 	(obj:0)
d12(3,15)                                           1 	(obj:0)
d12(3,18)                                           1 	(obj:0)
d12(3,21)                                           1 	(obj:0)
d12(3,24)                                           1 	(obj:0)
d12(3,27)                                           1 	(obj:0)
d12(3,30)                                           1 	(obj:0)
d12(3,33)                                           1 	(obj:0)
d12(3,36)                                           1 	(obj:0)
d12(3,39)                                           1 	(obj:0)
d21(2,4)                                            1 	(obj:0)
d21(2,5)                                            1 	(obj:0)
d21(3,13)                                           1 	(obj:0)
d21(3,14)                                           1 	(obj:0)
d21(3,15)                                           1 	(obj:0)
d21(3,16)                                           1 	(obj:0)
d21(3,17)                                           1 	(obj:0)
d21(3,19)                                           1 	(obj:0)
d21(3,22)                                           1 	(obj:0)
d21(3,23)                                           1 	(obj:0)
d21(3,25)                                           1 	(obj:0)
d21(3,31)                                           1 	(obj:0)
y2(3,24)                              530.52631578967 	(obj:0)
y2(3,27)                              530.52631578967 	(obj:0)
y2(3,30)                              530.52631578967 	(obj:0)
y2(3,33)                              530.52631578967 	(obj:0)
y2(3,36)                              530.52631578967 	(obj:0)
y2(3,39)                              530.52631578967 	(obj:0)
STE(1,1)                              2981.4522033332 	(obj:0)
STE(0,0)                                         6300 	(obj:0)
STE(1,2)                             3978.21820666668 	(obj:0)
STE(1,3)                             5195.67041000004 	(obj:0)
STE(2,4)                             263.233996666512 	(obj:0)
STE(2,5)                              1259.9999999998 	(obj:0)
STE(2,6)                             2477.45220333318 	(obj:0)
STE(2,7)                                         1260 	(obj:0)
STE(2,8)                             2256.76600333329 	(obj:0)
STE(2,9)                             3474.21820666668 	(obj:0)
STE(2,10)                            2477.45220333336 	(obj:0)
STE(2,11)                            3474.21820666665 	(obj:0)
STE(2,12)                            4691.67041000004 	(obj:0)
STE(3,13)                           -1696.64457079114 	(obj:0)
STE(3,14)                           -699.878567457851 	(obj:0)
STE(3,15)                            263.233996666698 	(obj:0)
STE(3,16)                           -699.878567457851 	(obj:0)
STE(3,17)                             296.88743587544 	(obj:0)
STE(3,18)                                        1260 	(obj:0)
STE(3,19)                            517.573635875527 	(obj:0)
STE(3,20)                            1514.33963920882 	(obj:0)
STE(3,21)                            2477.45220333337 	(obj:0)
STE(3,22)                           -699.878567457654 	(obj:0)
STE(3,23)                            296.887435875637 	(obj:0)
STE(3,24)                            1260.00000000019 	(obj:0)
STE(3,25)                            296.887435875638 	(obj:0)
STE(3,26)                            1293.65343920893 	(obj:0)
STE(3,27)                            2256.76600333348 	(obj:0)
STE(3,28)                            1514.33963920903 	(obj:0)
STE(3,29)                            2511.10564254232 	(obj:0)
STE(3,30)                            3474.21820666687 	(obj:0)
STE(3,31)                            517.573635875702 	(obj:0)
STE(3,32)                            1514.33963920899 	(obj:0)
STE(3,33)                            2477.45220333354 	(obj:0)
STE(3,34)                            1514.33963920899 	(obj:0)
STE(3,35)                            2511.10564254228 	(obj:0)
STE(3,36)                            3474.21820666683 	(obj:0)
STE(3,37)                            2731.79184254239 	(obj:0)
STE(3,38)                            3728.55784587568 	(obj:0)
STE(3,39)                            4691.67041000022 	(obj:0)
y1(3,23)                             413.201307711926 	(obj:0)
y1(3,25)                             1310.29071071189 	(obj:0)
y1(3,26)                             413.201307711926 	(obj:0)
y1(3,28)                             1310.29071071189 	(obj:0)
y1(3,29)                             413.201307711926 	(obj:0)
y1(3,31)                             1310.29071071189 	(obj:0)
y1(3,32)                             413.201307711926 	(obj:0)
y1(3,34)                             1310.29071071189 	(obj:0)
y1(3,35)                             413.201307711926 	(obj:0)
y1(3,37)                             1310.29071071189 	(obj:0)
y1(3,38)                             413.201307711926 	(obj:0)
BG(3)                                 3799.4839874611 	(obj:10)
AVE(1)                               3199.95851117552 	(obj:0)
WB(2)                                3265.15049132519 	(obj:0)
AVE(2)                               3265.15049132519 	(obj:0)
WB(3)                                3291.35535332476 	(obj:0)
AVE(3)                               3291.35535332476 	(obj:0)
WG(1)                                3199.95851117552 	(obj:10)
BG(1)                                1847.28293168158 	(obj:10)
BG(2)                                      4495.91835 	(obj:10)
y1(1,1)                              2533.09301700012 	(obj:0)
y1(1,2)                              1636.00361399998 	(obj:0)
y1(1,3)                              540.296630999967 	(obj:0)
y1(2,4)                              1992.79638600001 	(obj:0)
y1(2,5)                              1095.70698300005 	(obj:0)
y1(2,7)                              1992.79638600001 	(obj:0)
y1(2,8)                              1095.70698300005 	(obj:0)
y1(2,10)                             1992.79638600001 	(obj:0)
y1(2,11)                             1095.70698300005 	(obj:0)
y1(3,13)                             1310.29071071189 	(obj:0)
y1(3,14)                             413.201307711926 	(obj:0)
y1(3,16)                             1310.29071071189 	(obj:0)
y1(3,17)                             413.201307711926 	(obj:0)
y1(3,19)                             1310.29071071189 	(obj:0)
y1(3,20)                             413.201307711926 	(obj:0)
y1(3,22)                             1310.29071071189 	(obj:0)
y2(3,15)                              530.52631578967 	(obj:0)
y2(3,18)                             530.526315789681 	(obj:0)
y2(3,21)                              530.52631578967 	(obj:0)
